c Random generated cnf formula, satisfiable: false
p cnf 10 50
9 2 -8 0
-6 -4 5 0
7 -3 -2 0
5 -8 7 0
-1 6 2 0
1 2 9 0
-4 5 -7 0
-9 -10 -6 0
-10 4 -7 0
10 9 -1 0
6 9 -4 0
10 -5 4 0
3 5 2 0
7 -2 -6 0
6 -7 2 0
-5 1 3 0
-3 2 1 0
6 10 8 0
5 8 -3 0
7 -2 10 0
6 2 10 0
1 -3 -9 0
8 -5 -2 0
-9 -3 8 0
-10 -8 -4 0
1 -9 -7 0
8 -2 -3 0
-1 3 10 0
-10 -8 9 0
8 5 7 0
-5 2 10 0
-4 -2 10 0
5 6 8 0
-7 -5 -3 0
-5 8 -1 0
10 -6 1 0
-5 9 4 0
-6 -5 8 0
-4 -2 -8 0
-10 8 1 0
-2 6 7 0
-6 -4 7 0
10 2 -1 0
-6 5 8 0
5 10 -2 0
2 -9 4 0
-1 -8 -6 0
-9 -3 7 0
-6 4 2 0
-3 8 1 0
